/*********************************************
 * OPL 12.2 Data
 * Author: mireia.roca
 * Creation Date: 04/02/16
*********************************************/
Id=8071;
c=2;
n=30;
N={1,2,3,4,5,6,7,8,9,10,11,12,13,14,15,16,17,18,19,20,21,22,23,24,25,26,27,28,29,30};
D={31,32};
Q=100;
CJ=[{2},{1,2},{1,2},{2},{1},{2},{2},{2},{1},{1,2},{1},{2},{1},{2},{1},{1},{1},{1},{1},{1},{1},{1,2},{1},{2},{2},{1},{1},{1},{1},{1}];
d=[
[0,7],[15,7],[15,5],[0,13],[16,0],[0,11],[0,14],[0,14],[18,0],[17,20],[16,0],[0,11],[19,0],[0,16],[6,0],[13,0],[18,0],[14,0],[6,0],[9,0],[18,0],[7,13],[7,0],[0,18],[0,9],[8,0],[10,0],[19,0],[11,0],[6,0]];
m=[5,5];
K=[{1,2,3,4,5},{6,7,8,9,10}];
KT={1,2,3,4,5,6,7,8,9,10};
cv=50;
cost = #[
<1,2>:45.22,
<1,3>:49.66,
<1,4>:27.78,
<1,5>:45.01,
<1,6>:50.61,
<1,7>:48.33,
<1,8>:33.42,
<1,9>:50.04,
<1,10>:2.24,
<1,11>:52.43,
<1,12>:55.04,
<1,13>:28.02,
<1,14>:48.00,
<1,15>:2.83,
<1,16>:44.82,
<1,17>:54.12,
<1,18>:28.43,
<1,19>:48.26,
<1,20>:6.08,
<1,21>:44.72,
<1,22>:48.33,
<1,23>:34.99,
<1,24>:46.39,
<1,25>:4.00,
<1,26>:44.94,
<1,27>:50.29,
<1,28>:34.67,
<1,29>:39.46,
<1,30>:6.32,
<1,31>:72.09,
<1,32>:78.72,
<2,1>:45.22,
<2,3>:24.84,
<2,4>:23.09,
<2,5>:28.16,
<2,6>:7.07,
<2,7>:24.76,
<2,8>:16.00,
<2,9>:27.29,
<2,10>:46.32,
<2,11>:7.21,
<2,12>:27.78,
<2,13>:21.21,
<2,14>:28.23,
<2,15>:44.82,
<2,16>:2.83,
<2,17>:34.06,
<2,18>:19.42,
<2,19>:23.71,
<2,20>:49.74,
<2,21>:6.71,
<2,22>:24.76,
<2,23>:19.42,
<2,24>:21.93,
<2,25>:43.05,
<2,26>:2.24,
<2,27>:31.11,
<2,28>:18.25,
<2,29>:32.06,
<2,30>:39.20,
<2,31>:62.18,
<2,32>:84.06,
<3,1>:49.66,
<3,2>:24.84,
<3,4>:22.14,
<3,5>:51.88,
<3,6>:30.48,
<3,7>:1.41,
<3,8>:19.00,
<3,9>:51.87,
<3,10>:49.65,
<3,11>:26.63,
<3,12>:5.39,
<3,13>:22.56,
<3,14>:52.48,
<3,15>:50.70,
<3,16>:22.02,
<3,17>:9.22,
<3,18>:23.19,
<3,19>:48.26,
<3,20>:51.62,
<3,21>:31.40,
<3,22>:1.41,
<3,23>:15.30,
<3,24>:46.32,
<3,25>:46.07,
<3,26>:27.02,
<3,27>:6.71,
<3,28>:16.12,
<3,29>:54.08,
<3,30>:45.54,
<3,31>:86.61,
<3,32>:60.84,
<4,1>:27.78,
<4,2>:23.09,
<4,3>:22.14,
<4,5>:39.82,
<4,6>:30.02,
<4,7>:20.88,
<4,8>:7.28,
<4,9>:42.19,
<4,10>:28.02,
<4,11>:29.61,
<4,12>:27.51,
<4,13>:2.24,
<4,14>:41.62,
<4,15>:28.64,
<4,16>:21.38,
<4,17>:28.02,
<4,18>:4.47,
<4,19>:38.95,
<4,20>:30.48,
<4,21>:26.31,
<4,22>:20.88,
<4,23>:7.21,
<4,24>:36.72,
<4,25>:24.41,
<4,26>:24.00,
<4,27>:24.02,
<4,28>:7.07,
<4,29>:39.05,
<4,30>:23.41,
<4,31>:74.25,
<4,32>:67.18,
<5,1>:45.01,
<5,2>:28.16,
<5,3>:51.88,
<5,4>:39.82,
<5,6>:26.02,
<5,7>:51.48,
<5,8>:36.12,
<5,9>:5.83,
<5,10>:47.04,
<5,11>:31.06,
<5,12>:55.54,
<5,13>:37.64,
<5,14>:3.16,
<5,15>:43.01,
<5,16>:30.68,
<5,17>:60.90,
<5,18>:35.47,
<5,19>:6.71,
<5,20>:51.04,
<5,21>:21.59,
<5,22>:51.48,
<5,23>:41.11,
<5,24>:7.07,
<5,25>:45.28,
<5,26>:25.96,
<5,27>:57.45,
<5,28>:39.70,
<5,29>:7.81,
<5,30>:39.12,
<5,31>:35.00,
<5,32>:106.89,
<6,1>:50.61,
<6,2>:7.07,
<6,3>:30.48,
<6,4>:30.02,
<6,5>:26.02,
<6,7>:30.61,
<6,8>:23.02,
<6,9>:23.77,
<6,10>:51.88,
<6,11>:5.10,
<6,12>:32.65,
<6,13>:28.07,
<6,14>:25.32,
<6,15>:49.93,
<6,16>:9.49,
<6,17>:39.62,
<6,18>:26.17,
<6,19>:20.40,
<6,20>:55.46,
<6,21>:6.40,
<6,22>:30.61,
<6,23>:26.48,
<6,24>:19.10,
<6,25>:48.75,
<6,26>:6.08,
<6,27>:37.01,
<6,28>:25.32,
<6,29>:31.40,
<6,30>:44.42,
<6,31>:58.31,
<6,32>:90.55,
<7,1>:48.33,
<7,2>:24.76,
<7,3>:1.41,
<7,4>:20.88,
<7,5>:51.48,
<7,6>:30.61,
<7,8>:18.03,
<7,9>:51.61,
<7,10>:48.30,
<7,11>:26.93,
<7,12>:6.71,
<7,13>:21.38,
<7,14>:52.15,
<7,15>:49.40,
<7,16>:21.93,
<7,17>:9.43,
<7,18>:22.09,
<7,19>:48.01,
<7,20>:50.25,
<7,21>:31.24,
<7,22>:0.00,
<7,23>:14.14,
<7,24>:46.04,
<7,25>:44.72,
<7,26>:26.91,
<7,27>:6.40,
<7,28>:15.03,
<7,29>:53.49,
<7,30>:44.27,
<7,31>:86.28,
<7,32>:60.37,
<8,1>:33.42,
<8,2>:16.00,
<8,3>:19.00,
<8,4>:7.28,
<8,5>:36.12,
<8,6>:23.02,
<8,7>:18.03,
<8,9>:37.64,
<8,10>:33.97,
<8,11>:22.36,
<8,12>:24.08,
<8,13>:5.83,
<8,14>:37.48,
<8,15>:33.84,
<8,16>:14.14,
<8,17>:26.68,
<8,18>:5.00,
<8,19>:34.21,
<8,20>:36.80,
<8,21>:19.92,
<8,22>:18.03,
<8,23>:5.00,
<8,24>:32.02,
<8,25>:30.41,
<8,26>:17.12,
<8,27>:22.80,
<8,28>:3.61,
<8,29>:36.72,
<8,30>:28.30,
<8,31>:71.06,
<8,32>:71.06,
<9,1>:50.04,
<9,2>:27.29,
<9,3>:51.87,
<9,4>:42.19,
<9,5>:5.83,
<9,6>:23.77,
<9,7>:51.61,
<9,8>:37.64,
<9,10>:52.01,
<9,11>:28.86,
<9,12>:55.07,
<9,13>:39.96,
<9,14>:2.83,
<9,15>:48.17,
<9,16>:30.02,
<9,17>:61.03,
<9,18>:37.74,
<9,19>:3.61,
<9,20>:56.01,
<9,21>:20.59,
<9,22>:51.61,
<9,23>:42.52,
<9,24>:5.66,
<9,25>:50.04,
<9,26>:25.06,
<9,27>:57.80,
<9,28>:41.11,
<9,29>:13.60,
<9,30>:44.00,
<9,31>:34.89,
<9,32>:108.71,
<10,1>:2.24,
<10,2>:46.32,
<10,3>:49.65,
<10,4>:28.02,
<10,5>:47.04,
<10,6>:51.88,
<10,7>:48.30,
<10,8>:33.97,
<10,9>:52.01,
<10,11>:53.54,
<10,12>:55.01,
<10,13>:28.43,
<10,14>:50.01,
<10,15>:5.00,
<10,16>:45.80,
<10,17>:53.76,
<10,18>:29.00,
<10,19>:50.16,
<10,20>:4.00,
<10,21>:46.10,
<10,22>:48.30,
<10,23>:35.23,
<10,24>:48.26,
<10,25>:3.61,
<10,26>:46.14,
<10,27>:49.98,
<10,28>:35.00,
<10,29>:41.59,
<10,30>:8.06,
<10,31>:74.32,
<10,32>:76.97,
<11,1>:52.43,
<11,2>:7.21,
<11,3>:26.63,
<11,4>:29.61,
<11,5>:31.06,
<11,6>:5.10,
<11,7>:26.93,
<11,8>:22.36,
<11,9>:28.86,
<11,10>:53.54,
<11,12>:28.28,
<11,13>:27.89,
<11,14>:30.41,
<11,15>:52.01,
<11,16>:8.25,
<11,17>:35.61,
<11,18>:26.25,
<11,19>:25.50,
<11,20>:56.94,
<11,21>:10.44,
<11,22>:26.93,
<11,23>:25.00,
<11,24>:24.19,
<11,25>:50.25,
<11,26>:7.81,
<11,27>:33.29,
<11,28>:24.02,
<11,29>:36.22,
<11,30>:46.40,
<11,31>:63.32,
<11,32>:87.24,
<12,1>:55.04,
<12,2>:27.78,
<12,3>:5.39,
<12,4>:27.51,
<12,5>:55.54,
<12,6>:32.65,
<12,7>:6.71,
<12,8>:24.08,
<12,9>:55.07,
<12,10>:55.01,
<12,11>:28.28,
<12,13>:27.89,
<12,14>:55.90,
<12,15>:56.08,
<12,16>:25.06,
<12,17>:8.25,
<12,18>:28.44,
<12,19>:51.48,
<12,20>:56.94,
<12,21>:34.48,
<12,22>:6.71,
<12,23>:20.62,
<12,24>:49.65,
<12,25>:51.43,
<12,26>:30.02,
<12,27>:8.25,
<12,28>:21.38,
<12,29>:58.24,
<12,30>:50.92,
<12,31>:89.94,
<12,32>:60.75,
<13,1>:28.02,
<13,2>:21.21,
<13,3>:22.56,
<13,4>:2.24,
<13,5>:37.64,
<13,6>:28.07,
<13,7>:21.38,
<13,8>:5.83,
<13,9>:39.96,
<13,10>:28.43,
<13,11>:27.89,
<13,12>:27.89,
<13,14>:39.41,
<13,15>:28.65,
<13,16>:19.65,
<13,17>:29.02,
<13,18>:2.24,
<13,19>:36.72,
<13,20>:31.11,
<13,21>:24.19,
<13,22>:21.38,
<13,23>:7.28,
<13,24>:34.48,
<13,25>:24.84,
<13,26>:22.02,
<13,27>:25.02,
<13,28>:6.71,
<13,29>:37.01,
<13,30>:23.26,
<13,31>:72.14,
<13,32>:69.31,
<14,1>:48.00,
<14,2>:28.23,
<14,3>:52.48,
<14,4>:41.62,
<14,5>:3.16,
<14,6>:25.32,
<14,7>:52.15,
<14,8>:37.48,
<14,9>:2.83,
<14,10>:50.01,
<14,11>:30.41,
<14,12>:55.90,
<14,13>:39.41,
<14,15>:46.04,
<14,16>:30.87,
<14,17>:61.59,
<14,18>:37.20,
<14,19>:5.00,
<14,20>:54.01,
<14,21>:21.54,
<14,22>:52.15,
<14,23>:42.43,
<14,24>:6.32,
<14,25>:48.17,
<14,26>:26.00,
<14,27>:58.25,
<14,28>:41.01,
<14,29>:10.82,
<14,30>:42.05,
<14,31>:34.13,
<14,32>:108.47,
<15,1>:2.83,
<15,2>:44.82,
<15,3>:50.70,
<15,4>:28.64,
<15,5>:43.01,
<15,6>:49.93,
<15,7>:49.40,
<15,8>:33.84,
<15,9>:48.17,
<15,10>:5.00,
<15,11>:52.01,
<15,12>:56.08,
<15,13>:28.65,
<15,14>:46.04,
<15,16>:44.60,
<15,17>:55.54,
<15,18>:28.84,
<15,19>:46.53,
<15,20>:8.54,
<15,21>:43.91,
<15,22>:49.40,
<15,23>:35.78,
<15,24>:44.72,
<15,25>:6.32,
<15,26>:44.41,
<15,27>:51.66,
<15,28>:35.36,
<15,29>:37.22,
<15,30>:5.66,
<15,31>:69.46,
<15,32>:81.39,
<16,1>:44.82,
<16,2>:2.83,
<16,3>:22.02,
<16,4>:21.38,
<16,5>:30.68,
<16,6>:9.49,
<16,7>:21.93,
<16,8>:14.14,
<16,9>:30.02,
<16,10>:45.80,
<16,11>:8.25,
<16,12>:25.06,
<16,13>:19.65,
<16,14>:30.87,
<16,15>:44.60,
<16,17>:31.24,
<16,18>:18.03,
<16,19>:26.42,
<16,20>:49.09,
<16,21>:9.43,
<16,22>:21.93,
<16,23>:17.12,
<16,24>:24.60,
<16,25>:42.44,
<16,26>:5.00,
<16,27>:28.28,
<16,28>:16.03,
<16,29>:34.23,
<16,30>:38.95,
<16,31>:64.88,
<16,32>:81.30,
<17,1>:54.12,
<17,2>:34.06,
<17,3>:9.22,
<17,4>:28.02,
<17,5>:60.90,
<17,6>:39.62,
<17,7>:9.43,
<17,8>:26.68,
<17,9>:61.03,
<17,10>:53.76,
<17,11>:35.61,
<17,12>:8.25,
<17,13>:29.02,
<17,14>:61.59,
<17,15>:55.54,
<17,16>:31.24,
<17,18>:30.15,
<17,19>:57.43,
<17,20>:55.15,
<17,21>:40.61,
<17,22>:9.43,
<17,23>:22.20,
<17,24>:55.47,
<17,25>:50.29,
<17,26>:36.24,
<17,27>:4.00,
<17,28>:23.35,
<17,29>:62.77,
<17,30>:50.80,
<17,31>:95.72,
<17,32>:52.55,
<18,1>:28.43,
<18,2>:19.42,
<18,3>:23.19,
<18,4>:4.47,
<18,5>:35.47,
<18,6>:26.17,
<18,7>:22.09,
<18,8>:5.00,
<18,9>:37.74,
<18,10>:29.00,
<18,11>:26.25,
<18,12>:28.44,
<18,13>:2.24,
<18,14>:37.20,
<18,15>:28.84,
<18,16>:18.03,
<18,17>:30.15,
<18,19>:34.48,
<18,20>:31.89,
<18,21>:22.09,
<18,22>:22.09,
<18,23>:8.00,
<18,24>:32.25,
<18,25>:25.46,
<18,26>:20.10,
<18,27>:26.17,
<18,28>:7.07,
<18,29>:35.00,
<18,30>:23.32,
<18,31>:70.04,
<18,32>:71.45,
<19,1>:48.26,
<19,2>:23.71,
<19,3>:48.26,
<19,4>:38.95,
<19,5>:6.71,
<19,6>:20.40,
<19,7>:48.01,
<19,8>:34.21,
<19,9>:3.61,
<19,10>:50.16,
<19,11>:25.50,
<19,12>:51.48,
<19,13>:36.72,
<19,14>:5.00,
<19,15>:46.53,
<19,16>:26.42,
<19,17>:57.43,
<19,18>:34.48,
<19,20>:54.15,
<19,21>:17.00,
<19,22>:48.01,
<19,23>:39.05,
<19,24>:2.24,
<19,25>:48.01,
<19,26>:21.47,
<19,27>:54.20,
<19,28>:37.64,
<19,29>:14.21,
<19,30>:42.11,
<19,31>:38.47,
<19,32>:105.26,
<20,1>:6.08,
<20,2>:49.74,
<20,3>:51.62,
<20,4>:30.48,
<20,5>:51.04,
<20,6>:55.46,
<20,7>:50.25,
<20,8>:36.80,
<20,9>:56.01,
<20,10>:4.00,
<20,11>:56.94,
<20,12>:56.94,
<20,13>:31.11,
<20,14>:54.01,
<20,15>:8.54,
<20,16>:49.09,
<20,17>:55.15,
<20,18>:31.89,
<20,19>:54.15,
<20,21>:49.77,
<20,22>:50.25,
<20,23>:37.64,
<20,24>:52.24,
<20,25>:6.71,
<20,26>:49.65,
<20,27>:51.48,
<20,28>:37.54,
<20,29>:45.54,
<20,30>:12.04,
<20,31>:78.00,
<20,32>:75.39,
<21,1>:44.72,
<21,2>:6.71,
<21,3>:31.40,
<21,4>:26.31,
<21,5>:21.59,
<21,6>:6.40,
<21,7>:31.24,
<21,8>:19.92,
<21,9>:20.59,
<21,10>:46.10,
<21,11>:10.44,
<21,12>:34.48,
<21,13>:24.19,
<21,14>:21.54,
<21,15>:43.91,
<21,16>:9.43,
<21,17>:40.61,
<21,18>:22.09,
<21,19>:17.00,
<21,20>:49.77,
<21,22>:31.24,
<21,23>:24.17,
<21,24>:15.23,
<21,25>:43.08,
<21,26>:4.47,
<21,27>:37.54,
<21,28>:22.85,
<21,29>:26.02,
<21,30>:38.47,
<21,31>:55.47,
<21,32>:89.87,
<22,1>:48.33,
<22,2>:24.76,
<22,3>:1.41,
<22,4>:20.88,
<22,5>:51.48,
<22,6>:30.61,
<22,7>:0.00,
<22,8>:18.03,
<22,9>:51.61,
<22,10>:48.30,
<22,11>:26.93,
<22,12>:6.71,
<22,13>:21.38,
<22,14>:52.15,
<22,15>:49.40,
<22,16>:21.93,
<22,17>:9.43,
<22,18>:22.09,
<22,19>:48.01,
<22,20>:50.25,
<22,21>:31.24,
<22,23>:14.14,
<22,24>:46.04,
<22,25>:44.72,
<22,26>:26.91,
<22,27>:6.40,
<22,28>:15.03,
<22,29>:53.49,
<22,30>:44.27,
<22,31>:86.28,
<22,32>:60.37,
<23,1>:34.99,
<23,2>:19.42,
<23,3>:15.30,
<23,4>:7.21,
<23,5>:41.11,
<23,6>:26.48,
<23,7>:14.14,
<23,8>:5.00,
<23,9>:42.52,
<23,10>:35.23,
<23,11>:25.00,
<23,12>:20.62,
<23,13>:7.28,
<23,14>:42.43,
<23,15>:35.78,
<23,16>:17.12,
<23,17>:22.20,
<23,18>:8.00,
<23,19>:39.05,
<23,20>:37.64,
<23,21>:24.17,
<23,22>:14.14,
<23,24>:36.88,
<23,25>:31.62,
<23,26>:20.88,
<23,27>:18.25,
<23,28>:1.41,
<23,29>:41.68,
<23,30>:30.46,
<23,31>:76.06,
<23,32>:66.22,
<24,1>:46.39,
<24,2>:21.93,
<24,3>:46.32,
<24,4>:36.72,
<24,5>:7.07,
<24,6>:19.10,
<24,7>:46.04,
<24,8>:32.02,
<24,9>:5.66,
<24,10>:48.26,
<24,11>:24.19,
<24,12>:49.65,
<24,13>:34.48,
<24,14>:6.32,
<24,15>:44.72,
<24,16>:24.60,
<24,17>:55.47,
<24,18>:32.25,
<24,19>:2.24,
<24,20>:52.24,
<24,21>:15.23,
<24,22>:46.04,
<24,23>:36.88,
<24,25>:46.04,
<24,26>:19.70,
<24,27>:52.20,
<24,28>:35.47,
<24,29>:13.89,
<24,30>:40.20,
<24,31>:40.31,
<24,32>:103.08,
<25,1>:4.00,
<25,2>:43.05,
<25,3>:46.07,
<25,4>:24.41,
<25,5>:45.28,
<25,6>:48.75,
<25,7>:44.72,
<25,8>:30.41,
<25,9>:50.04,
<25,10>:3.61,
<25,11>:50.25,
<25,12>:51.43,
<25,13>:24.84,
<25,14>:48.17,
<25,15>:6.32,
<25,16>:42.44,
<25,17>:50.29,
<25,18>:25.46,
<25,19>:48.01,
<25,20>:6.71,
<25,21>:43.08,
<25,22>:44.72,
<25,23>:31.62,
<25,24>:46.04,
<25,26>:42.94,
<25,27>:46.49,
<25,28>:31.40,
<25,29>:40.26,
<25,30>:6.32,
<25,31>:73.79,
<25,32>:75.13,
<26,1>:44.94,
<26,2>:2.24,
<26,3>:27.02,
<26,4>:24.00,
<26,5>:25.96,
<26,6>:6.08,
<26,7>:26.91,
<26,8>:17.12,
<26,9>:25.06,
<26,10>:46.14,
<26,11>:7.81,
<26,12>:30.02,
<26,13>:22.02,
<26,14>:26.00,
<26,15>:44.41,
<26,16>:5.00,
<26,17>:36.24,
<26,18>:20.10,
<26,19>:21.47,
<26,20>:49.65,
<26,21>:4.47,
<26,22>:26.91,
<26,23>:20.88,
<26,24>:19.70,
<26,25>:42.94,
<26,27>:33.24,
<26,28>:19.65,
<26,29>:30.02,
<26,30>:38.83,
<26,31>:59.94,
<26,32>:85.98,
<27,1>:50.29,
<27,2>:31.11,
<27,3>:6.71,
<27,4>:24.02,
<27,5>:57.45,
<27,6>:37.01,
<27,7>:6.40,
<27,8>:22.80,
<27,9>:57.80,
<27,10>:49.98,
<27,11>:33.29,
<27,12>:8.25,
<27,13>:25.02,
<27,14>:58.25,
<27,15>:51.66,
<27,16>:28.28,
<27,17>:4.00,
<27,18>:26.17,
<27,19>:54.20,
<27,20>:51.48,
<27,21>:37.54,
<27,22>:6.40,
<27,23>:18.25,
<27,24>:52.20,
<27,25>:46.49,
<27,26>:33.24,
<27,28>:19.42,
<27,29>:59.09,
<27,30>:46.87,
<27,31>:92.36,
<27,32>:54.13,
<28,1>:34.67,
<28,2>:18.25,
<28,3>:16.12,
<28,4>:7.07,
<28,5>:39.70,
<28,6>:25.32,
<28,7>:15.03,
<28,8>:3.61,
<28,9>:41.11,
<28,10>:35.00,
<28,11>:24.02,
<28,12>:21.38,
<28,13>:6.71,
<28,14>:41.01,
<28,15>:35.36,
<28,16>:16.03,
<28,17>:23.35,
<28,18>:7.07,
<28,19>:37.64,
<28,20>:37.54,
<28,21>:22.85,
<28,22>:15.03,
<28,23>:1.41,
<28,24>:35.47,
<28,25>:31.40,
<28,26>:19.65,
<28,27>:19.42,
<28,29>:40.31,
<28,30>:29.97,
<28,31>:74.65,
<28,32>:67.62,
<29,1>:39.46,
<29,2>:32.06,
<29,3>:54.08,
<29,4>:39.05,
<29,5>:7.81,
<29,6>:31.40,
<29,7>:53.49,
<29,8>:36.72,
<29,9>:13.60,
<29,10>:41.59,
<29,11>:36.22,
<29,12>:58.24,
<29,13>:37.01,
<29,14>:10.82,
<29,15>:37.22,
<29,16>:34.23,
<29,17>:62.77,
<29,18>:35.00,
<29,19>:14.21,
<29,20>:45.54,
<29,21>:26.02,
<29,22>:53.49,
<29,23>:41.68,
<29,24>:13.89,
<29,25>:40.26,
<29,26>:30.02,
<29,27>:59.09,
<29,28>:40.31,
<29,30>:33.96,
<29,31>:35.47,
<29,32>:106.10,
<30,1>:6.32,
<30,2>:39.20,
<30,3>:45.54,
<30,4>:23.41,
<30,5>:39.12,
<30,6>:44.42,
<30,7>:44.27,
<30,8>:28.30,
<30,9>:44.00,
<30,10>:8.06,
<30,11>:46.40,
<30,12>:50.92,
<30,13>:23.26,
<30,14>:42.05,
<30,15>:5.66,
<30,16>:38.95,
<30,17>:50.80,
<30,18>:23.32,
<30,19>:42.11,
<30,20>:12.04,
<30,21>:38.47,
<30,22>:44.27,
<30,23>:30.46,
<30,24>:40.20,
<30,25>:6.32,
<30,26>:38.83,
<30,27>:46.87,
<30,28>:29.97,
<30,29>:33.96,
<30,31>:67.54,
<30,32>:79.76,
<31,1>:72.09,
<31,2>:62.18,
<31,3>:86.61,
<31,4>:74.25,
<31,5>:35.00,
<31,6>:58.31,
<31,7>:86.28,
<31,8>:71.06,
<31,9>:34.89,
<31,10>:74.32,
<31,11>:63.32,
<31,12>:89.94,
<31,13>:72.14,
<31,14>:34.13,
<31,15>:69.46,
<31,16>:64.88,
<31,17>:95.72,
<31,18>:70.04,
<31,19>:38.47,
<31,20>:78.00,
<31,21>:55.47,
<31,22>:86.28,
<31,23>:76.06,
<31,24>:40.31,
<31,25>:73.79,
<31,26>:59.94,
<31,27>:92.36,
<31,28>:74.65,
<31,29>:35.47,
<31,30>:67.54,
<32,1>:78.72,
<32,2>:84.06,
<32,3>:60.84,
<32,4>:67.18,
<32,5>:106.89,
<32,6>:90.55,
<32,7>:60.37,
<32,8>:71.06,
<32,9>:108.71,
<32,10>:76.97,
<32,11>:87.24,
<32,12>:60.75,
<32,13>:69.31,
<32,14>:108.47,
<32,15>:81.39,
<32,16>:81.30,
<32,17>:52.55,
<32,18>:71.45,
<32,19>:105.26,
<32,20>:75.39,
<32,21>:89.87,
<32,22>:60.37,
<32,23>:66.22,
<32,24>:103.08,
<32,25>:75.13,
<32,26>:85.98,
<32,27>:54.13,
<32,28>:67.62,
<32,29>:106.10,
<32,30>:79.76,
]#;


/*********************************************
 * Author: Zimmermann, Julia. Carvalheira, Rafael.
 * Creation Date: 30/01/25
*********************************************/

SCCVRPSPD

p = [
0 15
17 9
7 13
0 16
11 0
0 10
0 6
0 18
12 0
17 12
16 0
0 8
15 0
0 6
18 0
15 0
18 0
16 0
10 0
9 0
11 0
7 18
8 0
0 10
0 17
18 0
12 0
9 0
8 0
14 0
]

SCCVRPSPDM-M

m2m[1, 31, 2] = 7
m2m[2, 31, 2] = 7
m2m[3, 31, 2] = 5
m2m[4, 31, 2] = 13
m2m[5, 31, 1] = 16
m2m[6, 31, 2] = 11
m2m[7, 10, 2] = 14
m2m[8, 22, 2] = 14
m2m[9, 31, 1] = 18
m2m[10, 31, 1] = 17
m2m[11, 31, 1] = 16
m2m[12, 22, 2] = 7
m2m[12, 31, 2] = 4
m2m[13, 2, 1] = 19
m2m[14, 10, 2] = 7
m2m[14, 22, 2] = 9
m2m[15, 31, 1] = 6
m2m[16, 3, 1] = 8
m2m[16, 31, 1] = 5
m2m[17, 2, 1] = 2
m2m[17, 3, 1] = 14
m2m[17, 31, 1] = 2
m2m[18, 31, 1] = 14
m2m[19, 31, 1] = 6
m2m[20, 2, 1] = 9
m2m[21, 31, 1] = 18
m2m[22, 31, 1] = 7
m2m[23, 31, 1] = 7
m2m[24, 31, 2] = 18
m2m[25, 31, 2] = 9
m2m[26, 31, 1] = 8
m2m[27, 2, 1] = 7
m2m[27, 3, 1] = 3
m2m[28, 2, 1] = 2
m2m[28, 3, 1] = 17
m2m[29, 3, 1] = 7
m2m[29, 31, 1] = 4
m2m[30, 2, 1] = 5
m2m[30, 31, 1] = 1
m2m[31, 1, 2] = 15
m2m[31, 2, 2] = 9
m2m[31, 3, 2] = 13
m2m[31, 4, 2] = 16
m2m[31, 5, 1] = 11
m2m[31, 6, 2] = 10
m2m[31, 9, 1] = 12
m2m[31, 10, 1] = 17
m2m[31, 11, 1] = 16
m2m[31, 15, 1] = 18
m2m[31, 18, 1] = 16
m2m[31, 19, 1] = 10
m2m[31, 21, 1] = 11
m2m[31, 22, 1] = 7
m2m[31, 23, 1] = 8
m2m[31, 24, 2] = 10
m2m[31, 25, 2] = 17
m2m[31, 26, 1] = 18
